NAME: PointSet_Angle_55_5
TYPE: TSP
COMMENT: Points chosen discrete uniformly at random out of ${0, \ldots, 500}^2$.
DIMENSION: 55
EDGE_WEIGHT_TYPE: EUC_2D
NODE_COORD_SECTION
1 110 72
2 208 173
3 434 213
4 302 291
5 88 467
6 304 169
7 434 58
8 76 485
9 44 47
10 210 482
11 403 87
12 319 173
13 0 247
14 224 76
15 206 419
16 49 62
17 237 257
18 483 170
19 217 30
20 207 305
21 244 10
22 474 424
23 315 297
24 154 105
25 344 365
26 334 493
27 198 399
28 165 445
29 392 136
30 20 98
31 54 317
32 407 291
33 73 135
34 461 290
35 166 414
36 342 410
37 170 61
38 79 485
39 358 233
40 337 449
41 344 170
42 187 42
43 68 353
44 487 460
45 235 254
46 304 289
47 70 211
48 326 390
49 346 32
50 427 258
51 446 268
52 414 115
53 329 493
54 346 434
55 226 182
EOF
